p cnf 14 29
-14 -13 5 0
14 -11 -3 0
-14 8 -3 0
-14 5 4 0
14 -5 3 0
-13 12 3 0
13 -11 7 0
-13 11 3 0
13 -6 -3 0
-12 10 4 0
-12 -8 -4 0
12 -7 -3 0
-11 10 -6 0
-11 10 -1 0
11 -9 7 0
11 9 -3 0
-11 5 1 0
10 9 7 0
10 -8 -3 0
-9 8 6 0
-9 -7 -6 0
9 -7 -5 0
9 -7 4 0
-9 -5 -2 0
9 -4 -2 0
-9 -4 -1 0
8 7 -5 0
-8 3 1 0
-7 6 4 0
